Geographic Exponential Decay
80 89 302 218 289 144 140 311 2 183 55 33 32 238 204 8 304 105 215 172 85 120 188 107 154 82 150 295 261 152 145 203 179 222 102 181 119 21 198 36 40 260 94 221 5 148 259 15 71 10 247 180 241 297 90 197 184 169 20 219 228 19 34 70 208 76 41 205 196 300 0 124 201 151 237 9 93 35 271 64 28
p edge 320 681
e 0 250 65.0
e 0 70 70.0
e 0 18 10.0
e 0 7 60.0
e 0 265 21.0
e 0 288 97.0
e 0 134 43.0
e 0 287 69.0
e 0 257 58.0
e 1 288 6.0
e 2 193 49.0
e 2 151 26.0
e 2 97 31.0
e 2 179 83.0
e 2 180 25.0
e 2 3 70.0
e 2 42 39.0
e 2 62 22.0
e 2 285 6.0
e 4 285 5.0
e 5 48 83.0
e 5 232 83.0
e 5 117 63.0
e 5 49 58.0
e 5 254 70.0
e 5 195 59.0
e 5 245 32.0
e 5 134 34.0
e 5 139 86.0
e 6 147 1.0
e 8 53 13.0
e 8 42 3.0
e 8 204 25.0
e 8 116 89.0
e 8 89 88.0
e 8 306 3.0
e 8 269 21.0
e 8 167 91.0
e 8 26 9.0
e 9 169 34.0
e 9 126 34.0
e 9 144 38.0
e 9 155 25.0
e 9 309 9.0
e 9 27 89.0
e 9 188 76.0
e 9 86 18.0
e 9 166 74.0
e 10 17 68.0
e 10 51 20.0
e 10 154 49.0
e 10 73 18.0
e 10 74 43.0
e 10 96 49.0
e 10 119 7.0
e 10 75 56.0
e 10 293 60.0
e 11 24 4.0
e 12 293 2.0
e 13 93 99.0
e 13 8 92.0
e 13 107 69.0
e 14 272 1.0
e 15 195 66.0
e 15 11 89.0
e 15 234 25.0
e 15 189 98.0
e 15 264 92.0
e 15 156 29.0
e 15 129 52.0
e 15 216 92.0
e 15 207 68.0
e 16 103 9.0
e 19 106 19.0
e 19 44 89.0
e 19 90 8.0
e 19 73 86.0
e 19 294 84.0
e 19 84 5.0
e 19 112 6.0
e 19 212 97.0
e 19 205 23.0
e 20 144 63.0
e 20 156 53.0
e 20 232 21.0
e 20 59 40.0
e 20 32 79.0
e 20 109 71.0
e 20 262 65.0
e 20 110 54.0
e 20 124 82.0
e 21 301 81.0
e 21 71 71.0
e 21 249 38.0
e 21 46 91.0
e 21 275 21.0
e 21 57 46.0
e 21 305 2.0
e 21 135 37.0
e 21 238 19.0
e 22 273 5.0
e 23 244 1.0
e 25 135 2.0
e 26 162 15.0
e 26 159 25.0
e 26 232 10.0
e 26 114 7.0
e 28 246 78.0
e 28 14 26.0
e 28 60 36.0
e 28 198 21.0
e 28 171 6.0
e 28 91 7.0
e 28 129 50.0
e 28 221 95.0
e 28 98 17.0
e 29 127 2.0
e 30 186 1.0
e 31 34 60.0
e 32 169 93.0
e 32 77 46.0
e 32 190 88.0
e 32 86 1.0
e 32 178 1.0
e 32 240 63.0
e 32 212 3.0
e 32 51 14.0
e 33 199 57.0
e 33 108 13.0
e 33 77 55.0
e 33 136 36.0
e 33 311 14.0
e 33 84 5.0
e 33 51 36.0
e 33 57 21.0
e 33 294 49.0
e 34 276 55.0
e 34 166 91.0
e 34 204 39.0
e 34 58 69.0
e 34 126 31.0
e 34 295 51.0
e 34 75 23.0
e 34 21 44.0
e 35 169 97.0
e 35 111 4.0
e 35 59 48.0
e 35 199 58.0
e 35 60 76.0
e 35 269 16.0
e 35 191 18.0
e 35 116 75.0
e 35 62 9.0
e 36 120 45.0
e 36 175 32.0
e 36 233 69.0
e 36 130 86.0
e 36 170 9.0
e 36 218 9.0
e 36 286 44.0
e 36 43 88.0
e 36 89 16.0
e 37 74 8.0
e 38 62 3.0
e 39 6 1.0
e 40 87 52.0
e 40 23 49.0
e 40 250 77.0
e 40 270 37.0
e 40 119 2.0
e 40 123 36.0
e 40 80 26.0
e 40 305 57.0
e 40 252 82.0
e 41 15 8.0
e 41 299 59.0
e 41 275 29.0
e 41 233 27.0
e 41 175 65.0
e 41 231 64.0
e 41 227 97.0
e 41 106 95.0
e 41 136 17.0
e 45 177 1.0
e 47 299 3.0
e 50 0 18.0
e 50 310 33.0
e 50 22 16.0
e 50 16 9.0
e 50 120 67.0
e 52 83 1.0
e 54 29 2.0
e 55 279 58.0
e 55 274 34.0
e 55 239 89.0
e 55 36 76.0
e 55 9 68.0
e 55 95 45.0
e 55 24 23.0
e 55 200 86.0
e 55 17 60.0
e 56 5 66.0
e 61 306 2.0
e 63 31 18.0
e 63 295 63.0
e 63 1 24.0
e 64 286 95.0
e 64 34 27.0
e 64 209 100.0
e 64 78 97.0
e 64 257 64.0
e 64 73 82.0
e 64 188 85.0
e 64 240 13.0
e 64 158 36.0
e 65 281 10.0
e 66 133 2.0
e 67 243 2.0
e 68 111 1.0
e 68 271 98.0
e 69 94 36.0
e 70 317 98.0
e 70 125 9.0
e 70 278 80.0
e 70 25 45.0
e 70 186 83.0
e 70 316 31.0
e 70 71 25.0
e 70 213 21.0
e 71 119 13.0
e 71 219 47.0
e 71 317 71.0
e 71 157 10.0
e 71 239 90.0
e 71 278 30.0
e 71 69 61.0
e 72 87 5.0
e 76 258 10.0
e 76 233 5.0
e 76 234 17.0
e 76 247 53.0
e 76 68 52.0
e 76 260 91.0
e 76 238 78.0
e 76 178 92.0
e 76 259 78.0
e 79 18 1.0
e 81 182 3.0
e 82 149 96.0
e 82 295 96.0
e 82 61 22.0
e 82 144 40.0
e 82 19 71.0
e 82 141 76.0
e 82 26 41.0
e 82 85 19.0
e 82 96 25.0
e 85 313 96.0
e 85 37 10.0
e 85 170 12.0
e 85 187 40.0
e 85 65 82.0
e 85 78 75.0
e 85 100 93.0
e 85 221 43.0
e 88 32 91.0
e 88 279 32.0
e 88 79 11.0
e 88 63 46.0
e 88 214 10.0
e 89 20 31.0
e 89 196 41.0
e 89 103 5.0
e 89 223 55.0
e 89 94 47.0
e 89 256 3.0
e 89 249 64.0
e 90 315 7.0
e 90 76 19.0
e 90 207 88.0
e 90 85 34.0
e 90 252 93.0
e 90 281 48.0
e 90 291 50.0
e 90 40 79.0
e 91 245 8.0
e 92 139 1.0
e 93 179 84.0
e 93 271 11.0
e 93 10 51.0
e 93 215 52.0
e 93 148 3.0
e 93 117 88.0
e 93 147 37.0
e 93 80 32.0
e 94 64 97.0
e 94 125 42.0
e 94 136 13.0
e 94 35 49.0
e 94 7 89.0
e 94 256 33.0
e 94 113 76.0
e 95 44 14.0
e 95 101 15.0
e 99 287 10.0
e 102 307 27.0
e 102 161 14.0
e 102 152 91.0
e 102 200 29.0
e 102 301 61.0
e 102 290 27.0
e 102 240 2.0
e 102 123 74.0
e 102 103 95.0
e 104 41 43.0
e 105 92 43.0
e 105 185 60.0
e 105 66 42.0
e 105 138 9.0
e 105 238 16.0
e 105 254 25.0
e 105 235 65.0
e 105 27 78.0
e 105 228 24.0
e 107 244 22.0
e 107 12 90.0
e 107 127 64.0
e 107 258 74.0
e 107 128 77.0
e 107 204 64.0
e 107 70 32.0
e 107 28 87.0
e 108 81 5.0
e 109 196 57.0
e 115 13 4.0
e 118 131 3.0
e 118 222 58.0
e 118 176 11.0
e 119 269 12.0
e 119 99 25.0
e 119 184 69.0
e 119 244 76.0
e 119 45 43.0
e 119 169 89.0
e 120 74 77.0
e 120 30 87.0
e 120 97 66.0
e 120 118 7.0
e 120 91 22.0
e 120 58 25.0
e 120 193 31.0
e 121 128 6.0
e 122 177 1.0
e 124 176 98.0
e 124 271 92.0
e 124 89 28.0
e 124 183 39.0
e 124 211 73.0
e 124 222 84.0
e 124 67 31.0
e 124 33 32.0
e 132 173 2.0
e 133 151 19.0
e 137 189 1.0
e 140 43 24.0
e 140 152 17.0
e 140 38 30.0
e 140 141 1.0
e 140 145 95.0
e 140 50 2.0
e 140 39 69.0
e 140 179 61.0
e 140 116 77.0
e 142 158 1.0
e 142 259 52.0
e 143 194 1.0
e 144 46 64.0
e 144 140 54.0
e 144 47 33.0
e 144 302 63.0
e 144 179 70.0
e 144 195 71.0
e 145 157 10.0
e 145 48 25.0
e 145 49 69.0
e 145 218 53.0
e 145 311 45.0
e 145 143 84.0
e 145 312 44.0
e 145 159 78.0
e 146 136 1.0
e 148 201 66.0
e 148 51 97.0
e 148 302 97.0
e 148 287 96.0
e 148 292 1.0
e 148 52 44.0
e 148 253 49.0
e 148 196 6.0
e 150 219 12.0
e 150 292 78.0
e 150 204 10.0
e 150 224 44.0
e 150 53 18.0
e 150 54 91.0
e 150 255 8.0
e 150 119 81.0
e 150 120 76.0
e 151 171 55.0
e 151 113 42.0
e 151 271 25.0
e 151 235 63.0
e 151 55 84.0
e 151 183 77.0
e 151 297 95.0
e 152 179 72.0
e 152 255 27.0
e 152 56 64.0
e 152 161 77.0
e 152 209 91.0
e 152 280 72.0
e 152 121 60.0
e 153 203 96.0
e 154 213 51.0
e 154 268 42.0
e 154 236 68.0
e 154 130 71.0
e 154 71 81.0
e 154 90 54.0
e 154 122 12.0
e 154 208 11.0
e 157 205 61.0
e 160 241 11.0
e 160 72 3.0
e 163 82 27.0
e 164 83 2.0
e 165 124 19.0
e 168 296 2.0
e 169 318 16.0
e 169 227 43.0
e 169 289 30.0
e 169 179 54.0
e 169 2 100.0
e 172 167 67.0
e 172 87 32.0
e 172 302 72.0
e 172 88 7.0
e 172 98 66.0
e 172 128 80.0
e 172 93 44.0
e 172 289 87.0
e 172 179 21.0
e 174 240 22.0
e 174 94 94.0
e 179 290 41.0
e 179 168 44.0
e 180 172 78.0
e 180 142 9.0
e 180 173 99.0
e 180 95 79.0
e 180 264 83.0
e 180 137 92.0
e 180 304 73.0
e 180 307 45.0
e 181 246 3.0
e 181 110 71.0
e 181 304 26.0
e 181 160 21.0
e 181 149 51.0
e 181 100 100.0
e 181 270 97.0
e 181 280 46.0
e 181 223 6.0
e 182 101 8.0
e 182 243 16.0
e 183 3 59.0
e 183 277 63.0
e 183 265 5.0
e 183 187 23.0
e 183 102 25.0
e 183 278 78.0
e 183 131 83.0
e 184 104 31.0
e 184 224 72.0
e 184 150 52.0
e 184 162 28.0
e 184 105 75.0
e 184 163 68.0
e 184 204 88.0
e 184 107 68.0
e 188 108 55.0
e 188 296 96.0
e 188 289 39.0
e 188 109 43.0
e 188 219 75.0
e 188 112 68.0
e 188 259 89.0
e 190 114 12.0
e 190 188 66.0
e 192 284 4.0
e 192 115 3.0
e 196 241 34.0
e 196 132 34.0
e 196 133 21.0
e 196 138 73.0
e 196 144 88.0
e 196 145 22.0
e 197 146 47.0
e 197 174 99.0
e 197 266 54.0
e 197 221 99.0
e 197 151 55.0
e 197 297 28.0
e 197 148 6.0
e 197 179 100.0
e 197 152 56.0
e 198 180 74.0
e 198 153 72.0
e 198 225 13.0
e 198 244 85.0
e 198 154 67.0
e 198 155 40.0
e 198 214 79.0
e 198 157 5.0
e 201 280 73.0
e 201 282 14.0
e 201 236 57.0
e 201 210 25.0
e 201 164 65.0
e 201 313 47.0
e 201 165 34.0
e 201 169 14.0
e 202 181 43.0
e 203 182 68.0
e 203 183 27.0
e 203 184 91.0
e 203 225 67.0
e 203 185 57.0
e 203 259 88.0
e 203 260 19.0
e 203 304 97.0
e 204 190 16.0
e 204 314 86.0
e 204 191 29.0
e 204 251 79.0
e 205 192 83.0
e 205 194 12.0
e 205 196 31.0
e 205 197 1.0
e 205 198 40.0
e 205 201 55.0
e 205 202 31.0
e 206 203 92.0
e 206 318 1.0
e 206 204 97.0
e 208 205 59.0
e 208 206 47.0
e 208 308 63.0
e 208 312 7.0
e 208 248 32.0
e 208 295 6.0
e 208 315 97.0
e 208 210 52.0
e 215 208 54.0
e 215 211 86.0
e 215 280 89.0
e 215 237 36.0
e 215 216 17.0
e 215 260 47.0
e 215 217 57.0
e 215 218 53.0
e 217 218 89.0
e 218 219 65.0
e 218 220 11.0
e 218 221 97.0
e 218 222 32.0
e 218 226 79.0
e 219 215 91.0
e 219 4 76.0
e 219 259 10.0
e 219 217 6.0
e 219 220 52.0
e 221 304 16.0
e 221 219 97.0
e 221 222 52.0
e 221 247 18.0
e 221 226 15.0
e 222 302 96.0
e 222 228 21.0
e 222 229 41.0
e 222 291 97.0
e 222 273 44.0
e 228 218 25.0
e 228 221 56.0
e 228 229 66.0
e 228 230 15.0
e 228 241 21.0
e 228 231 25.0
e 228 318 35.0
e 231 222 79.0
e 237 228 49.0
e 237 265 34.0
e 237 229 87.0
e 237 230 37.0
e 237 231 93.0
e 237 238 10.0
e 237 241 4.0
e 237 242 94.0
e 238 241 16.0
e 238 242 31.0
e 238 247 27.0
e 238 248 32.0
e 238 251 19.0
e 241 247 86.0
e 241 248 100.0
e 241 253 61.0
e 241 259 63.0
e 247 237 99.0
e 247 259 97.0
e 247 260 18.0
e 247 261 64.0
e 247 262 7.0
e 259 238 58.0
e 259 260 18.0
e 260 261 4.0
e 260 276 81.0
e 260 241 8.0
e 260 263 59.0
e 261 259 11.0
e 261 263 65.0
e 261 266 32.0
e 261 267 61.0
e 261 268 24.0
e 261 270 29.0
e 261 271 92.0
e 271 247 76.0
e 271 260 41.0
e 271 313 79.0
e 271 263 62.0
e 280 261 93.0
e 283 267 2.0
e 284 268 2.0
e 289 271 57.0
e 289 272 93.0
e 289 274 17.0
e 289 276 16.0
e 289 277 46.0
e 289 280 71.0
e 291 281 1.0
e 295 282 45.0
e 295 289 32.0
e 295 314 67.0
e 295 283 25.0
e 295 284 27.0
e 297 291 57.0
e 297 295 82.0
e 297 298 99.0
e 297 300 65.0
e 297 302 30.0
e 297 303 55.0
e 297 304 65.0
e 300 298 48.0
e 300 302 90.0
e 300 303 19.0
e 300 304 85.0
e 300 305 83.0
e 300 308 30.0
e 300 316 51.0
e 300 309 18.0
e 302 304 83.0
e 302 310 24.0
e 302 311 89.0
e 304 310 14.0
e 304 311 29.0
e 311 297 6.0
e 311 300 2.0
e 311 312 38.0
e 311 318 49.0
e 311 319 93.0
e 319 302 48.0
e 319 304 30.0
